6 
6 
5 
6 
6 
5 
10 
6 
11 
10 
7 
6 
11 
10 
6 
6 
7 
9 
11 
10 
7 
12 
7 
6 
7 
4 
9 
9 
8 
8 
12 
11 
6 
5 
8 
5 
6 
8 
8 
6 
8 
12 
7 
11 
4 
11 
5 
6 
11 
9 
12 
10 
17 
8 
6 
6 
9 
12 
6 
10 
8 
10 
8 
4 
7 
7 
8 
4 
13 
9 
9 
11 
7 
12 
8 
11 
9 
5 
5 
10 
11 
9 
7 
9 
8 
4 
9 
9 
8 
10 
7 
7 
18 
9 
6 
12 
4 
4 
6 
6 
